p cnf 28 23
-1 -2 -3 27 0 
-4 27 0 
-5 -1 -2 27 0 
-6 25 27 0 
-7 28 0 
-8 28 0 
-9 28 0 
-10 27 0 
-11 27 0 
-12 27 0 
-13 22 27 0 
-14 27 0 
-1 -2 -15 27 0 
-16 -2 27 0 
-17 -16 27 0 
-18 27 0 
-19 -20 27 0 
-21 -22 13 27 0 
-23 28 0 
-24 27 0 
-25 6 28 0 
-26 27 0 
-20 27 0 
